data/solutions/recovery/degenerate/moderate/flexible/degenerate_moderate_instance1/21.sol
Elapsed time: 0.07
Upper bound: 237076.0
Planning weighted value: 1851746.0
C[0]=237076.0
C[1]=237052.0
C[2]=237008.0
y[0]=2
y[1]=1
y[2]=2
y[3]=1
y[4]=2
y[5]=0
y[6]=2
y[7]=2
y[8]=2
y[9]=1
y[10]=0
y[11]=2
y[12]=0
y[13]=1
y[14]=1
y[15]=2
y[16]=0
y[17]=1
y[18]=1
y[19]=0
y[20]=0
y[21]=1
